--------------------------------------------------------------------------------(Solver execution current time: 0.0002913475036621094)
[INFO] Input Seed : 0
--------------------------------------------------------------------------------(Solver execution current time: 0.0003361701965332031)
[INFO] Input time limit : 60
--------------------------------------------------------------------------------(Solver execution current time: 0.00037479400634765625)
[INFO] Command line arguments read with no errors.
--------------------------------------------------------------------------------(Solver execution current time: 0.030136823654174805)
[INFO] Input file read with no errors.
--------------------------------------------------------------------------------(Solver execution current time: 0.030504703521728516)
[INFO] Starting solver.
--------------------------------------------------------------------------------(Solver execution current time: 0.03056645393371582)
[INFO] Starting construction
--------------------------------------------------------------------------------(Solver execution current time: 19.015627145767212)
[INFO] Finished construction
--------------------------------------------------------------------------------(Solver execution current time: 19.015709161758423)
[SOLUTION]
Basic Greedy Heuristic
Exec Time: 18.985051155090332
obj_value: -46; obj_routes: 563
Route 1 : 31 21 3 12 37 81 87 71 62 53 15 8 65 58 
Route 2 : 2 17 22 67 72 52 45 49 95 34 16 99 19 84 66 18 69 5 50 68 32 55 33 10 100 60 83 82 
Route 3 : 28 9 40 59 44 39 94 78 89 90 14 27 77 64 48 6 20 56 70 98 35 85 
Route 4 : 42 11 61 41 47 30 92 91 25 80 97 75 
Route 5 : 
Route 6 : 
Route 7 : 
Route 8 : 4 38 26 88 76 54 23 29 73 24 74 43 79 93 13 63 

--------------------------------------------------------------------------------(Solver execution current time: 19.01629614830017)
[SOLUTION]
Solution after BasicGreedyLimitedHeterogeneousFleet
obj_value: -46; obj_routes: 563
Route 1 : 31 21 3 12 37 81 87 71 62 53 15 8 65 58 
Route 2 : 2 17 22 67 72 52 45 49 95 34 16 99 19 84 66 18 69 5 50 68 32 55 33 10 100 60 83 82 
Route 3 : 28 9 40 59 44 39 94 78 89 90 14 27 77 64 48 6 20 56 70 98 35 85 
Route 4 : 42 11 61 41 47 30 92 91 25 80 97 75 
Route 5 : 
Route 6 : 
Route 7 : 
Route 8 : 4 38 26 88 76 54 23 29 73 24 74 43 79 93 13 63 

--------------------------------------------------------------------------------(Solver execution current time: 19.017046213150024)
[INFO] Starting metaheuristic
--------------------------------------------------------------------------------(Solver execution current time: 19.019799947738647)
[INFO] AGES EXCLUDED
--------------------------------------------------------------------------------(Solver execution current time: 26.12982439994812)
[SOLUTION]
LNS
IT: 40
Exec Time: 7.107068300247192
obj_value: -46; obj_routes: 563
Route 1 : 31 21 3 12 37 81 87 71 62 53 15 8 65 58 
Route 2 : 2 17 22 67 72 52 45 49 95 34 16 99 19 84 66 18 69 5 50 68 32 55 33 10 100 60 83 82 
Route 3 : 28 9 40 59 44 39 94 78 89 90 14 27 77 64 48 6 20 56 70 98 35 85 
Route 4 : 42 11 61 41 47 30 92 91 25 80 97 75 
Route 5 : 
Route 6 : 
Route 7 : 
Route 8 : 4 38 26 88 76 54 23 29 73 24 74 43 79 93 13 63 

--------------------------------------------------------------------------------(Solver execution current time: 26.202216863632202)
[SOLUTION]
PartitionMaxRequests
Exec Time: 0.06898069381713867
obj_value: -46; obj_routes: 563
Route 1 : 31 21 3 12 37 81 87 71 62 53 15 8 65 58 
Route 2 : 2 17 22 67 72 52 45 49 95 34 16 99 19 84 66 18 69 5 50 68 32 55 33 10 100 60 83 82 
Route 3 : 28 9 40 59 44 39 94 78 89 90 14 27 77 64 48 6 20 56 70 98 35 85 
Route 4 : 42 11 61 41 47 30 92 91 25 80 97 75 
Route 5 : 4 38 26 88 76 54 23 29 73 24 74 43 79 93 13 63 
Route 6 : 
Route 7 : 
Route 8 : 

--------------------------------------------------------------------------------(Solver execution current time: 28.942493438720703)
[SOLUTION]
Original Perturbation
Exec Time: 2.739495038986206
obj_value: -46; obj_routes: 669
Route 1 : 42 31 21 11 81 71 92 61 15 65 19 69 6 48 56 98 
Route 2 : 2 17 22 67 72 52 45 49 95 34 16 99 84 66 5 50 55 33 10 100 60 83 
Route 3 : 44 41 40 39 91 89 94 8 58 90 27 77 18 20 68 70 32 82 
Route 4 : 28 37 78 12 25 62 87 75 43 93 
Route 5 : 9 59 47 97 14 64 
Route 6 : 3 30 80 53 
Route 7 : 
Route 8 : 4 38 26 88 76 54 23 29 73 24 74 79 35 13 63 85 

--------------------------------------------------------------------------------(Solver execution current time: 28.94366478919983)
[SOLUTION]
SBMath
IT: 1
ITs witout improving: 1
IT time: 9.923867225646973
Time since begin: 9.925193786621094
obj_value: -46; obj_routes: 669
Route 1 : 42 31 21 11 81 71 92 61 15 65 19 69 6 48 56 98 
Route 2 : 2 17 22 67 72 52 45 49 95 34 16 99 84 66 5 50 55 33 10 100 60 83 
Route 3 : 44 41 40 39 91 89 94 8 58 90 27 77 18 20 68 70 32 82 
Route 4 : 28 37 78 12 25 62 87 75 43 93 
Route 5 : 9 59 47 97 14 64 
Route 6 : 3 30 80 53 
Route 7 : 
Route 8 : 4 38 26 88 76 54 23 29 73 24 74 79 35 13 63 85 

--------------------------------------------------------------------------------(Solver execution current time: 28.943867683410645)
[SOLUTION]
SBMath
IT: 1
ITs witout improving: 1
IT time: 9.923867225646973
Time since begin: 9.925193786621094
obj_value: -46; obj_routes: 563
Route 1 : 31 21 3 12 37 81 87 71 62 53 15 8 65 58 
Route 2 : 2 17 22 67 72 52 45 49 95 34 16 99 19 84 66 18 69 5 50 68 32 55 33 10 100 60 83 82 
Route 3 : 28 9 40 59 44 39 94 78 89 90 14 27 77 64 48 6 20 56 70 98 35 85 
Route 4 : 42 11 61 41 47 30 92 91 25 80 97 75 
Route 5 : 
Route 6 : 
Route 7 : 
Route 8 : 4 38 26 88 76 54 23 29 73 24 74 43 79 93 13 63 

--------------------------------------------------------------------------------(Solver execution current time: 28.9447762966156)
[INFO] AGES EXCLUDED
--------------------------------------------------------------------------------(Solver execution current time: 31.85093069076538)
[SOLUTION]
LNS
IT: 40
Exec Time: 2.9032175540924072
obj_value: -46; obj_routes: 669
Route 1 : 42 31 21 11 81 71 92 61 15 65 19 69 6 48 56 98 
Route 2 : 2 17 22 67 72 52 45 49 95 34 16 99 84 66 5 50 55 33 10 100 60 83 
Route 3 : 44 41 40 39 91 89 94 8 58 90 27 77 18 20 68 70 32 82 
Route 4 : 28 37 78 12 25 62 87 75 43 93 
Route 5 : 9 59 47 97 14 64 
Route 6 : 3 30 80 53 
Route 7 : 
Route 8 : 4 38 26 88 76 54 23 29 73 24 74 79 35 13 63 85 

--------------------------------------------------------------------------------(Solver execution current time: 31.867989540100098)
[SOLUTION]
PartitionMaxRequests
Exec Time: 0.014411449432373047
Improvedobj_value: -46; obj_routes: 563
Route 1 : 31 21 3 12 37 81 87 71 62 53 15 8 65 58 
Route 2 : 2 17 22 67 72 52 45 49 95 34 16 99 19 84 66 18 69 5 50 68 32 55 33 10 100 60 83 82 
Route 3 : 28 9 40 59 44 39 94 78 89 90 14 27 77 64 48 6 20 56 70 98 35 85 
Route 4 : 42 11 61 41 47 30 92 91 25 80 97 75 
Route 5 : 4 38 26 88 76 54 23 29 73 24 74 43 79 93 13 63 
Route 6 : 
Route 7 : 
Route 8 : 

--------------------------------------------------------------------------------(Solver execution current time: 33.22531509399414)
[SOLUTION]
Original Perturbation
Exec Time: 1.3565239906311035
obj_value: -46; obj_routes: 614
Route 1 : 21 71 15 8 65 58 27 19 69 18 77 68 
Route 2 : 2 17 22 67 72 52 45 49 95 34 16 99 84 66 5 55 43 93 33 10 32 60 83 82 
Route 3 : 42 28 31 92 40 81 39 78 89 90 23 6 20 73 70 56 
Route 4 : 30 44 80 94 14 64 48 98 50 100 
Route 5 : 11 37 12 61 9 62 87 59 47 97 
Route 6 : 41 3 91 53 25 75 
Route 7 : 
Route 8 : 4 38 26 88 76 54 29 24 74 79 35 13 63 85 

--------------------------------------------------------------------------------(Solver execution current time: 33.2264621257782)
[SOLUTION]
SBMath
IT: 2
ITs witout improving: 2
IT time: 4.281697988510132
Time since begin: 14.207991361618042
obj_value: -46; obj_routes: 614
Route 1 : 21 71 15 8 65 58 27 19 69 18 77 68 
Route 2 : 2 17 22 67 72 52 45 49 95 34 16 99 84 66 5 55 43 93 33 10 32 60 83 82 
Route 3 : 42 28 31 92 40 81 39 78 89 90 23 6 20 73 70 56 
Route 4 : 30 44 80 94 14 64 48 98 50 100 
Route 5 : 11 37 12 61 9 62 87 59 47 97 
Route 6 : 41 3 91 53 25 75 
Route 7 : 
Route 8 : 4 38 26 88 76 54 29 24 74 79 35 13 63 85 

--------------------------------------------------------------------------------(Solver execution current time: 33.22665548324585)
[SOLUTION]
SBMath
IT: 2
ITs witout improving: 2
IT time: 4.281697988510132
Time since begin: 14.207991361618042
obj_value: -46; obj_routes: 563
Route 1 : 31 21 3 12 37 81 87 71 62 53 15 8 65 58 
Route 2 : 2 17 22 67 72 52 45 49 95 34 16 99 19 84 66 18 69 5 50 68 32 55 33 10 100 60 83 82 
Route 3 : 28 9 40 59 44 39 94 78 89 90 14 27 77 64 48 6 20 56 70 98 35 85 
Route 4 : 42 11 61 41 47 30 92 91 25 80 97 75 
Route 5 : 
Route 6 : 
Route 7 : 
Route 8 : 4 38 26 88 76 54 23 29 73 24 74 43 79 93 13 63 

--------------------------------------------------------------------------------(Solver execution current time: 33.22757005691528)
[INFO] AGES EXCLUDED
--------------------------------------------------------------------------------(Solver execution current time: 39.37952947616577)
[SOLUTION]
LNS
IT: 40
Exec Time: 6.148625135421753
obj_value: -46; obj_routes: 614
Route 1 : 21 71 15 8 65 58 27 19 69 18 77 68 
Route 2 : 2 17 22 67 72 52 45 49 95 34 16 99 84 66 5 55 43 93 33 10 32 60 83 82 
Route 3 : 42 28 31 92 40 81 39 78 89 90 23 6 20 73 70 56 
Route 4 : 30 44 80 94 14 64 48 98 50 100 
Route 5 : 11 37 12 61 9 62 87 59 47 97 
Route 6 : 41 3 91 53 25 75 
Route 7 : 
Route 8 : 4 38 26 88 76 54 29 24 74 79 35 13 63 85 

--------------------------------------------------------------------------------(Solver execution current time: 39.40142369270325)
[SOLUTION]
PartitionMaxRequests
Exec Time: 0.01784539222717285
Improvedobj_value: -46; obj_routes: 563
Route 1 : 31 21 3 12 37 81 87 71 62 53 15 8 65 58 
Route 2 : 2 17 22 67 72 52 45 49 95 34 16 99 19 84 66 18 69 5 50 68 32 55 33 10 100 60 83 82 
Route 3 : 28 9 40 59 44 39 94 78 89 90 14 27 77 64 48 6 20 56 70 98 35 85 
Route 4 : 42 11 61 41 47 30 92 91 25 80 97 75 
Route 5 : 4 38 26 88 76 54 23 29 73 24 74 43 79 93 13 63 
Route 6 : 
Route 7 : 
Route 8 : 

--------------------------------------------------------------------------------(Solver execution current time: 41.2488899230957)
[SOLUTION]
Original Perturbation
Exec Time: 1.8467047214508057
obj_value: -46; obj_routes: 691
Route 1 : 3 28 53 2 25 78 52 75 27 19 69 77 
Route 2 : 22 17 67 72 8 45 58 49 95 16 99 66 5 55 43 6 93 33 56 10 13 60 83 63 
Route 3 : 31 40 81 39 89 34 90 84 23 20 73 18 48 68 70 98 
Route 4 : 11 41 44 61 94 91 35 85 
Route 5 : 37 12 9 62 59 87 15 47 65 97 14 64 
Route 6 : 42 92 30 21 80 71 32 82 
Route 7 : 
Route 8 : 4 38 26 88 76 54 29 24 74 50 79 100 

--------------------------------------------------------------------------------(Solver execution current time: 41.25006031990051)
[SOLUTION]
SBMath
IT: 3
ITs witout improving: 3
IT time: 8.022509574890137
Time since begin: 22.231589317321777
obj_value: -46; obj_routes: 691
Route 1 : 3 28 53 2 25 78 52 75 27 19 69 77 
Route 2 : 22 17 67 72 8 45 58 49 95 16 99 66 5 55 43 6 93 33 56 10 13 60 83 63 
Route 3 : 31 40 81 39 89 34 90 84 23 20 73 18 48 68 70 98 
Route 4 : 11 41 44 61 94 91 35 85 
Route 5 : 37 12 9 62 59 87 15 47 65 97 14 64 
Route 6 : 42 92 30 21 80 71 32 82 
Route 7 : 
Route 8 : 4 38 26 88 76 54 29 24 74 50 79 100 

--------------------------------------------------------------------------------(Solver execution current time: 41.25024676322937)
[SOLUTION]
SBMath
IT: 3
ITs witout improving: 3
IT time: 8.022509574890137
Time since begin: 22.231589317321777
obj_value: -46; obj_routes: 563
Route 1 : 31 21 3 12 37 81 87 71 62 53 15 8 65 58 
Route 2 : 2 17 22 67 72 52 45 49 95 34 16 99 19 84 66 18 69 5 50 68 32 55 33 10 100 60 83 82 
Route 3 : 28 9 40 59 44 39 94 78 89 90 14 27 77 64 48 6 20 56 70 98 35 85 
Route 4 : 42 11 61 41 47 30 92 91 25 80 97 75 
Route 5 : 
Route 6 : 
Route 7 : 
Route 8 : 4 38 26 88 76 54 23 29 73 24 74 43 79 93 13 63 

--------------------------------------------------------------------------------(Solver execution current time: 41.25110578536987)
[INFO] AGES EXCLUDED
--------------------------------------------------------------------------------(Solver execution current time: 44.841392278671265)
[SOLUTION]
LNS
IT: 40
Exec Time: 3.5873727798461914
obj_value: -46; obj_routes: 691
Route 1 : 3 28 53 2 25 78 52 75 27 19 69 77 
Route 2 : 22 17 67 72 8 45 58 49 95 16 99 66 5 55 43 6 93 33 56 10 13 60 83 63 
Route 3 : 31 40 81 39 89 34 90 84 23 20 73 18 48 68 70 98 
Route 4 : 11 41 44 61 94 91 35 85 
Route 5 : 37 12 9 62 59 87 15 47 65 97 14 64 
Route 6 : 42 92 30 21 80 71 32 82 
Route 7 : 
Route 8 : 4 38 26 88 76 54 29 24 74 50 79 100 

--------------------------------------------------------------------------------(Solver execution current time: 44.86393213272095)
[SOLUTION]
PartitionMaxRequests
Exec Time: 0.01972222328186035
Improvedobj_value: -46; obj_routes: 563
Route 1 : 31 21 3 12 37 81 87 71 62 53 15 8 65 58 
Route 2 : 2 17 22 67 72 52 45 49 95 34 16 99 19 84 66 18 69 5 50 68 32 55 33 10 100 60 83 82 
Route 3 : 28 9 40 59 44 39 94 78 89 90 14 27 77 64 48 6 20 56 70 98 35 85 
Route 4 : 42 11 61 41 47 30 92 91 25 80 97 75 
Route 5 : 4 38 26 88 76 54 23 29 73 24 74 43 79 93 13 63 
Route 6 : 
Route 7 : 
Route 8 : 

--------------------------------------------------------------------------------(Solver execution current time: 46.66589283943176)
[SOLUTION]
Original Perturbation
Exec Time: 1.8010649681091309
obj_value: -46; obj_routes: 733
Route 1 : 11 9 28 42 78 61 92 59 25 75 23 19 27 73 69 77 
Route 2 : 22 30 17 67 72 8 80 58 49 16 99 14 66 64 6 33 56 13 83 63 
Route 3 : 41 31 91 81 39 89 34 84 35 85 
Route 4 : 21 44 94 71 47 97 48 98 
Route 5 : 3 37 40 45 87 53 15 90 95 65 20 70 10 60 
Route 6 : 2 12 52 62 5 18 68 55 32 43 82 93 
Route 7 : 
Route 8 : 4 38 26 88 76 54 29 24 74 50 79 100 

--------------------------------------------------------------------------------(Solver execution current time: 46.66704869270325)
[SOLUTION]
SBMath
IT: 4
ITs witout improving: 4
IT time: 5.4159510135650635
Time since begin: 27.648577451705933
obj_value: -46; obj_routes: 733
Route 1 : 11 9 28 42 78 61 92 59 25 75 23 19 27 73 69 77 
Route 2 : 22 30 17 67 72 8 80 58 49 16 99 14 66 64 6 33 56 13 83 63 
Route 3 : 41 31 91 81 39 89 34 84 35 85 
Route 4 : 21 44 94 71 47 97 48 98 
Route 5 : 3 37 40 45 87 53 15 90 95 65 20 70 10 60 
Route 6 : 2 12 52 62 5 18 68 55 32 43 82 93 
Route 7 : 
Route 8 : 4 38 26 88 76 54 29 24 74 50 79 100 

--------------------------------------------------------------------------------(Solver execution current time: 46.667245864868164)
[SOLUTION]
SBMath
IT: 4
ITs witout improving: 4
IT time: 5.4159510135650635
Time since begin: 27.648577451705933
obj_value: -46; obj_routes: 563
Route 1 : 31 21 3 12 37 81 87 71 62 53 15 8 65 58 
Route 2 : 2 17 22 67 72 52 45 49 95 34 16 99 19 84 66 18 69 5 50 68 32 55 33 10 100 60 83 82 
Route 3 : 28 9 40 59 44 39 94 78 89 90 14 27 77 64 48 6 20 56 70 98 35 85 
Route 4 : 42 11 61 41 47 30 92 91 25 80 97 75 
Route 5 : 
Route 6 : 
Route 7 : 
Route 8 : 4 38 26 88 76 54 23 29 73 24 74 43 79 93 13 63 

--------------------------------------------------------------------------------(Solver execution current time: 46.66810631752014)
[INFO] AGES EXCLUDED
--------------------------------------------------------------------------------(Solver execution current time: 51.010854959487915)
[SOLUTION]
LNS
IT: 40
Exec Time: 4.3398118019104
obj_value: -46; obj_routes: 733
Route 1 : 11 9 28 42 78 61 92 59 25 75 23 19 27 73 69 77 
Route 2 : 22 30 17 67 72 8 80 58 49 16 99 14 66 64 6 33 56 13 83 63 
Route 3 : 41 31 91 81 39 89 34 84 35 85 
Route 4 : 21 44 94 71 47 97 48 98 
Route 5 : 3 37 40 45 87 53 15 90 95 65 20 70 10 60 
Route 6 : 2 12 52 62 5 18 68 55 32 43 82 93 
Route 7 : 
Route 8 : 4 38 26 88 76 54 29 24 74 50 79 100 

--------------------------------------------------------------------------------(Solver execution current time: 51.03685522079468)
[SOLUTION]
PartitionMaxRequests
Exec Time: 0.022552967071533203
Improvedobj_value: -46; obj_routes: 563
Route 1 : 31 21 3 12 37 81 87 71 62 53 15 8 65 58 
Route 2 : 2 17 22 67 72 52 45 49 95 34 16 99 19 84 66 18 69 5 50 68 32 55 33 10 100 60 83 82 
Route 3 : 28 9 40 59 44 39 94 78 89 90 14 27 77 64 48 6 20 56 70 98 35 85 
Route 4 : 42 11 61 41 47 30 92 91 25 80 97 75 
Route 5 : 4 38 26 88 76 54 23 29 73 24 74 43 79 93 13 63 
Route 6 : 
Route 7 : 
Route 8 : 

--------------------------------------------------------------------------------(Solver execution current time: 52.41400194168091)
[SOLUTION]
Original Perturbation
Exec Time: 1.3763163089752197
obj_value: -46; obj_routes: 702
Route 1 : 9 42 92 3 41 91 59 53 20 48 70 33 83 98 35 85 
Route 2 : 22 17 28 67 72 78 8 58 49 16 99 66 6 56 13 63 
Route 3 : 25 39 75 89 
Route 4 : 21 44 12 94 71 62 47 97 34 14 84 64 
Route 5 : 11 31 37 61 40 81 45 87 15 90 95 65 5 27 77 55 10 60 
Route 6 : 2 30 52 80 19 18 69 68 32 43 82 93 
Route 7 : 50 100 
Route 8 : 4 38 26 88 76 54 23 29 73 24 74 79 

--------------------------------------------------------------------------------(Solver execution current time: 52.41521191596985)
[SOLUTION]
SBMath
IT: 5
ITs witout improving: 5
IT time: 5.747108221054077
Time since begin: 33.39673590660095
obj_value: -46; obj_routes: 702
Route 1 : 9 42 92 3 41 91 59 53 20 48 70 33 83 98 35 85 
Route 2 : 22 17 28 67 72 78 8 58 49 16 99 66 6 56 13 63 
Route 3 : 25 39 75 89 
Route 4 : 21 44 12 94 71 62 47 97 34 14 84 64 
Route 5 : 11 31 37 61 40 81 45 87 15 90 95 65 5 27 77 55 10 60 
Route 6 : 2 30 52 80 19 18 69 68 32 43 82 93 
Route 7 : 50 100 
Route 8 : 4 38 26 88 76 54 23 29 73 24 74 79 

--------------------------------------------------------------------------------(Solver execution current time: 52.41539931297302)
[SOLUTION]
SBMath
IT: 5
ITs witout improving: 5
IT time: 5.747108221054077
Time since begin: 33.39673590660095
obj_value: -46; obj_routes: 563
Route 1 : 31 21 3 12 37 81 87 71 62 53 15 8 65 58 
Route 2 : 2 17 22 67 72 52 45 49 95 34 16 99 19 84 66 18 69 5 50 68 32 55 33 10 100 60 83 82 
Route 3 : 28 9 40 59 44 39 94 78 89 90 14 27 77 64 48 6 20 56 70 98 35 85 
Route 4 : 42 11 61 41 47 30 92 91 25 80 97 75 
Route 5 : 
Route 6 : 
Route 7 : 
Route 8 : 4 38 26 88 76 54 23 29 73 24 74 43 79 93 13 63 

--------------------------------------------------------------------------------(Solver execution current time: 52.41629600524902)
[INFO] AGES EXCLUDED
--------------------------------------------------------------------------------(Solver execution current time: 56.57874512672424)
[SOLUTION]
LNS
IT: 40
Exec Time: 4.159469366073608
obj_value: -46; obj_routes: 702
Route 1 : 9 42 92 3 41 91 59 53 20 48 70 33 83 98 35 85 
Route 2 : 22 17 28 67 72 78 8 58 49 16 99 66 6 56 13 63 
Route 3 : 25 39 75 89 
Route 4 : 21 44 12 94 71 62 47 97 34 14 84 64 
Route 5 : 11 31 37 61 40 81 45 87 15 90 95 65 5 27 77 55 10 60 
Route 6 : 2 30 52 80 19 18 69 68 32 43 82 93 
Route 7 : 50 100 
Route 8 : 4 38 26 88 76 54 23 29 73 24 74 79 

--------------------------------------------------------------------------------(Solver execution current time: 56.60830020904541)
[SOLUTION]
PartitionMaxRequests
Exec Time: 0.026657581329345703
Improvedobj_value: -46; obj_routes: 563
Route 1 : 31 21 3 12 37 81 87 71 62 53 15 8 65 58 
Route 2 : 2 17 22 67 72 52 45 49 95 34 16 99 19 84 66 18 69 5 50 68 32 55 33 10 100 60 83 82 
Route 3 : 28 9 40 59 44 39 94 78 89 90 14 27 77 64 48 6 20 56 70 98 35 85 
Route 4 : 42 11 61 41 47 30 92 91 25 80 97 75 
Route 5 : 4 38 26 88 76 54 23 29 73 24 74 43 79 93 13 63 
Route 6 : 
Route 7 : 
Route 8 : 

--------------------------------------------------------------------------------(Solver execution current time: 57.88475799560547)
[SOLUTION]
Original Perturbation
Exec Time: 1.275658130645752
obj_value: -46; obj_routes: 687
Route 1 : 9 42 92 3 41 91 59 53 14 64 20 6 48 56 70 98 
Route 2 : 22 2 28 72 52 78 8 58 49 16 99 66 33 43 83 93 
Route 3 : 21 71 39 89 
Route 4 : 30 47 80 25 97 75 34 84 35 85 
Route 5 : 11 31 44 37 94 61 81 87 15 65 5 27 77 55 10 13 32 60 82 63 
Route 6 : 40 12 45 62 95 90 23 19 73 18 69 68 
Route 7 : 17 67 
Route 8 : 4 38 26 88 76 54 29 24 74 50 79 100 

--------------------------------------------------------------------------------(Solver execution current time: 57.88594126701355)
[SOLUTION]
SBMath
IT: 6
ITs witout improving: 6
IT time: 5.469667196273804
Time since begin: 38.867470264434814
obj_value: -46; obj_routes: 687
Route 1 : 9 42 92 3 41 91 59 53 14 64 20 6 48 56 70 98 
Route 2 : 22 2 28 72 52 78 8 58 49 16 99 66 33 43 83 93 
Route 3 : 21 71 39 89 
Route 4 : 30 47 80 25 97 75 34 84 35 85 
Route 5 : 11 31 44 37 94 61 81 87 15 65 5 27 77 55 10 13 32 60 82 63 
Route 6 : 40 12 45 62 95 90 23 19 73 18 69 68 
Route 7 : 17 67 
Route 8 : 4 38 26 88 76 54 29 24 74 50 79 100 

--------------------------------------------------------------------------------(Solver execution current time: 57.88614082336426)
[SOLUTION]
SBMath
IT: 6
ITs witout improving: 6
IT time: 5.469667196273804
Time since begin: 38.867470264434814
obj_value: -46; obj_routes: 563
Route 1 : 31 21 3 12 37 81 87 71 62 53 15 8 65 58 
Route 2 : 2 17 22 67 72 52 45 49 95 34 16 99 19 84 66 18 69 5 50 68 32 55 33 10 100 60 83 82 
Route 3 : 28 9 40 59 44 39 94 78 89 90 14 27 77 64 48 6 20 56 70 98 35 85 
Route 4 : 42 11 61 41 47 30 92 91 25 80 97 75 
Route 5 : 
Route 6 : 
Route 7 : 
Route 8 : 4 38 26 88 76 54 23 29 73 24 74 43 79 93 13 63 

--------------------------------------------------------------------------------(Solver execution current time: 57.88702750205994)
[INFO] AGES EXCLUDED
--------------------------------------------------------------------------------(Solver execution current time: 60.022515058517456)
[WARNING] Time Limit Exceeded
--------------------------------------------------------------------------------(Solver execution current time: 60.022664070129395)
[WARNING] Searching current best solution.
--------------------------------------------------------------------------------(Solver execution current time: 60.02350616455078)
[WARNING] Current best solution found.
--------------------------------------------------------------------------------(Solver execution current time: 60.02413463592529)
[INFO] Algorithm execution time : 60.025498151779175
--------------------------------------------------------------------------------(Solver execution current time: 60.02476763725281)
[SOLUTION]
Final Solution Verification
====================================
Constraints verification: 
Homogenous Capacity Constraint OK
Time Windwos Constraint OK
Pickup and Delivery Constraint OK
Fixed Requests Constraint OK
Limited Fleet Constraint OK
Heterogeneous Fleet Constraint OK
====================================
Obj Func verification: 
SOLUTION COST OK
------------------------------------
ROUTES TOTAL COST OK
------------------------------------
REQUESTS TOTAL COST OK
------------------------------------
OBJECTIVE VALUE: -46
ROUTES VALUE: 563
------------------------------------

Best Solution: 
obj_value: -46; obj_routes: 563
Route 1 : 31 21 3 12 37 81 87 71 62 53 15 8 65 58 
Route 2 : 2 17 22 67 72 52 45 49 95 34 16 99 19 84 66 18 69 5 50 68 32 55 33 10 100 60 83 82 
Route 3 : 28 9 40 59 44 39 94 78 89 90 14 27 77 64 48 6 20 56 70 98 35 85 
Route 4 : 42 11 61 41 47 30 92 91 25 80 97 75 
Route 5 : 
Route 6 : 
Route 7 : 
Route 8 : 4 38 26 88 76 54 23 29 73 24 74 43 79 93 13 63 

--------------------------------------------------------------------------------